p cnf 14 25
14 13 -1 0
-14 -12 2 0
14 10 -2 0
-14 10 1 0
-14 9 -8 0
-14 9 -2 0
13 -12 4 0
13 10 -7 0
13 -9 1 0
-13 -9 1 0
-12 -11 -9 0
12 11 5 0
-12 10 -6 0
-12 10 -3 0
12 5 4 0
-11 10 -5 0
11 10 -1 0
-11 -5 -2 0
-11 4 2 0
-10 -9 2 0
-10 -7 -4 0
9 3 -1 0
7 -6 4 0
7 4 -1 0
-7 -3 2 0
